p cnf 337
-3 -21
-4 -31
-5 -39
-6 -55
-7 -67
-8 -78
-9 -94
-10 -106
-11 -117
-12 6
-12 -7
-6 7 12
-13 -8
-13 12
8 -12 13
-14 -6
-14 7
6 -7 14
-15 8
-15 14
-8 -14 15
-16 3
-16 -15
-3 15 16
-17 -13
-17 16
13 -16 17
-18 -13
-18 -17
13 17 18
-19 -1
-19 -18
1 18 19
-20 1
-20 3
-1 -3 20
-21 -19
-21 -20
19 20 21
-22 9
-22 -10
-9 10 22
-23 -11
-23 22
11 -22 23
-24 -9
-24 10
9 -10 24
-25 11
-25 24
-11 -24 25
-26 4
-26 -25
-4 25 26
-27 -23
-27 26
23 -26 27
-28 -23
-28 -27
23 27 28
-29 1
-29 -28
-1 28 29
-30 -1
-30 4
1 -4 30
-31 -29
-31 -30
29 30 31
-32 -8
-32 14
8 -14 32
-33 5
-33 -32
-5 32 33
-34 -32
-34 -33
32 33 34
-35 -11
-35 24
11 -24 35
-36 5
-36 -35
-5 35 36
-37 -1
-37 -34
1 34 37
-38 1
-38 36
-1 -36 38
-39 -37
-39 -38
37 38 39
-40 -2
-40 6
2 -6 40
-41 6
-41 -40
-6 40 41
-42 -7
-42 -41
7 41 42
-43 -14
-43 -42
14 42 43
-44 -4
-44 6
4 -6 44
-45 6
-45 -44
-6 44 45
-46 2
-46 -6
-2 6 46
-47 7
-47 -45
-7 45 47
-48 -7
-48 46
7 -46 48
-49 -47
-49 -48
47 48 49
-50 8
-50 -43
-8 43 50
-51 -8
-51 -49
8 49 51
-52 -50
-52 -51
50 51 52
-53 -1
-53 -52
1 52 53
-54 1
-54 6
-1 -6 54
-55 -53
-55 -54
53 54 55
-56 2
-56 6
-2 -6 56
-57 5
-57 -6
-5 6 57
-58 -56
-58 -57
56 57 58
-59 -7
-59 -58
7 58 59
-60 -14
-60 -59
14 59 60
-61 -12
-61 -14
12 14 61
-62 8
-62 -60
-8 60 62
-63 -8
-63 -61
8 61 63
-64 -62
-64 -63
62 63 64
-65 -1
-65 -64
1 64 65
-66 1
-66 7
-1 -7 66
-67 -65
-67 -66
65 66 67
-68 -5
-68 -6
5 6 68
-69 -6
-69 -68
6 68 69
-70 -7
-70 -69
7 69 70
-71 -14
-71 -70
14 70 71
-72 6
-72 7
-6 -7 72
-73 8
-73 -71
-8 71 73
-74 -8
-74 72
8 -72 74
-75 -73
-75 -74
73 74 75
-76 -1
-76 -75
1 75 76
-77 1
-77 8
-1 -8 77
-78 -76
-78 -77
76 77 78
-79 -2
-79 9
2 -9 79
-80 9
-80 -79
-9 79 80
-81 -10
-81 -80
10 80 81
-82 -24
-82 -81
24 81 82
-83 -3
-83 9
3 -9 83
-84 9
-84 -83
-9 83 84
-85 2
-85 -9
-2 9 85
-86 10
-86 -84
-10 84 86
-87 -10
-87 85
10 -85 87
-88 -86
-88 -87
86 87 88
-89 11
-89 -82
-11 82 89
-90 -11
-90 -88
11 88 90
-91 -89
-91 -90
89 90 91
-92 1
-92 -91
-1 91 92
-93 -1
-93 9
1 -9 93
-94 -92
-94 -93
92 93 94
-95 2
-95 9
-2 -9 95
-96 -5
-96 -9
5 9 96
-97 -95
-97 -96
95 96 97
-98 -10
-98 -97
10 97 98
-99 -24
-99 -98
24 98 99
-100 -22
-100 -24
22 24 100
-101 11
-101 -99
-11 99 101
-102 -11
-102 -100
11 100 102
-103 -101
-103 -102
101 102 103
-104 1
-104 -103
-1 103 104
-105 -1
-105 10
1 -10 105
-106 -104
-106 -105
104 105 106
-107 5
-107 -9
-5 9 107
-108 -9
-108 -107
9 107 108
-109 -10
-109 -108
10 108 109
-110 -24
-110 -109
24 109 110
-111 9
-111 10
-9 -10 111
-112 11
-112 -110
-11 110 112
-113 -11
-113 111
11 -111 113
-114 -112
-114 -113
112 113 114
-115 1
-115 -114
-1 114 115
-116 -1
-116 11
1 -11 116
-117 -115
-117 -116
115 116 117
-118 8
-118 12
-8 -12 118
-119 11
-119 22
-11 -22 119
-120 118
-120 119
-118 -119 120
120
